LAMMPS (2 Aug 2023)
OMP_NUM_THREADS environment is not set. Defaulting to 1 thread. (src/comm.cpp:98)
  using 1 OpenMP thread(s) per MPI task
# 1.Initialization
units lj
dimension 3
atom_style atomic
boundary p p p

# 2.System definition
region simbox block -20 20 -20 20 -20 20
create_box 2 simbox
Created orthogonal box = (-20 -20 -20) to (20 20 20)
  1 by 1 by 1 MPI processor grid
region  top     block -20 20 -20 20 10 17
region bottom  block -20 20 -20 20 -17 -10
create_atoms 1 random 3000 37458 simbox overlap 0.3
Created 3000 atoms
  using lattice units in orthogonal box = (-20 -20 -20) to (20 20 20)
  create_atoms CPU = 0.079 seconds
create_atoms 2 random 3000 43827 simbox overlap 0.3
Created 3000 atoms
  using lattice units in orthogonal box = (-20 -20 -20) to (20 20 20)
  create_atoms CPU = 0.197 seconds

# 3.Setting
group oil type 1
3000 atoms in group oil
group water type 2
3000 atoms in group water
mass 1 2.0  # oil
mass 2 3.0  # water
pair_style lj/cut 2.5
pair_coeff 1 1 10.0 1.0          # Water-water
pair_coeff 2 2 10.0 1.0           # Oil-oil
pair_coeff 1 2 1 1.0           # Water-oil (immiscible)
# fix grav_oil oil addforce 0.0 0.0 -1
# fix grav_water water addforce 0.0 0.0 -10

# 4. visualization
thermo 10
thermo_style custom step etotal press

# 5.Run
comm_modify vel yes  # Enable velocity communication for ghost atoms
minimize 1.0e-5 1.0e-6 1000 10000
Generated 0 of 1 mixed pair_coeff terms from geometric mixing rule
Neighbor list info ...
  update: every = 1 steps, delay = 0 steps, check = yes
  max neighbors/atom: 2000, page size: 100000
  master list distance cutoff = 2.8
  ghost atom cutoff = 2.8
  binsize = 1.4, bins = 29 29 29
  1 neighbor lists, perpetual/occasional/extra = 1 0 0
  (1) pair lj/cut, perpetual
      attributes: half, newton on
      pair build: half/bin/atomonly/newton
      stencil: half/bin/3d
      bin: standard
Per MPI rank memory allocation (min/avg/max) = 4.489 | 4.489 | 4.489 Mbytes
   Step         TotEng         Press     
         0   72662.047      27278.52     
        10  -0.23649975     1.7070903    
        20  -4.5754905     -0.26827787   
        30  -6.0424043     -0.20811423   
        40  -7.2434692     -0.1965895    
        50  -7.9943208     -0.13998102   
        60  -8.9278611     -0.13773693   
        70  -9.6261991     -0.13083988   
        80  -10.133137     -0.096083165  
        90  -10.664749     -0.11956557   
       100  -11.328529     -0.11127649   
       110  -12.069115     -0.10787389   
       120  -12.725076     -0.098755628  
       130  -13.366852     -0.083290758  
       140  -13.844367     -0.072071252  
       150  -14.439426     -0.08143706   
       160  -14.968046     -0.071751765  
       170  -15.338028     -0.085414956  
       180  -15.786614     -0.077003744  
       190  -16.15256      -0.072950597  
       200  -16.516377     -0.075901534  
       210  -16.836095     -0.064518683  
       220  -17.169075     -0.065850868  
       230  -17.518225     -0.058496825  
       240  -17.804858     -0.061560162  
       250  -18.126141     -0.061564623  
       260  -18.446238     -0.059480548  
       270  -18.711938     -0.051112497  
       280  -18.923886     -0.052908869  
       290  -19.129109     -0.046702431  
       300  -19.325097     -0.044820676  
       310  -19.505409     -0.040472036  
       320  -19.671347     -0.037484401  
       330  -19.816424     -0.039262629  
       340  -20.012374     -0.037413431  
       350  -20.160762     -0.038522173  
       360  -20.273791     -0.038638063  
       370  -20.369526     -0.028701196  
       380  -20.474512     -0.039064828  
       390  -20.572308     -0.036176511  
       400  -20.698393     -0.035382768  
       410  -20.799006     -0.033831339  
       420  -20.878181     -0.033537558  
       430  -20.954605     -0.031781941  
       440  -21.08166      -0.031164514  
       450  -21.207646     -0.031401124  
       460  -21.2912       -0.031819576  
       470  -21.398864     -0.028834296  
       480  -21.482536     -0.029372541  
       490  -21.590427     -0.026691824  
       500  -21.667393     -0.024221741  
       510  -21.768361     -0.025744189  
       520  -21.850926     -0.02526464   
       530  -21.947192     -0.025355285  
       540  -22.039549     -0.026421753  
       550  -22.097278     -0.022761765  
       560  -22.147213     -0.023335944  
       570  -22.196469     -0.021401456  
       580  -22.244153     -0.025047891  
       590  -22.309193     -0.021820139  
       600  -22.368877     -0.019164193  
       610  -22.433235     -0.017287075  
       620  -22.489183     -0.019448952  
       630  -22.528568     -0.010689728  
       640  -22.576968     -0.02094985   
       650  -22.62343      -0.020818243  
       660  -22.655833     -0.02057648   
       670  -22.708771     -0.023086829  
       680  -22.774357     -0.020809235  
       690  -22.826407     -0.018860232  
       700  -22.85937      -0.017313402  
       710  -22.893777     -0.017232221  
       720  -22.962618     -0.018541982  
       730  -23.021665     -0.015896901  
       740  -23.065925     -0.014103595  
       750  -23.100082     -0.014783761  
       760  -23.15423      -0.015722077  
       770  -23.217943     -0.014153592  
       780  -23.264191     -0.013942227  
       790  -23.294057     -0.014458665  
       800  -23.328099     -0.013251671  
       810  -23.377822     -0.014637351  
       820  -23.432927     -0.013181027  
       830  -23.480144     -0.012293365  
       840  -23.514463     -0.015363405  
       850  -23.553385     -0.015812847  
       860  -23.587089     -0.012532917  
       870  -23.613212     -0.013483567  
       880  -23.64722      -0.011428333  
       890  -23.692822     -0.013569919  
       900  -23.739595     -0.012597198  
       910  -23.77191      -0.011464198  
       920  -23.812632     -0.010965687  
       930  -23.842729     -0.010714927  
       940  -23.880639     -0.011200456  
       950  -23.914703     -0.014656841  
       960  -23.957341     -0.011930707  
       970  -23.993208     -0.01085075   
       980  -24.032067     -0.010822568  
       990  -24.070338     -0.011558204  
      1000  -24.115601     -0.013210889  
Loop time of 2.71453 on 1 procs for 1000 steps with 6000 atoms

46.6% CPU use with 1 MPI tasks x 1 OpenMP threads

Minimization stats:
  Stopping criterion = max iterations
  Energy initial, next-to-last, final = 
      72662.0466213106  -24.1106962029629  -24.1156005696579
  Force two-norm initial, final = 6.2747265e+09 354.37439
  Force max component initial, final = 2.1966656e+09 137.39486
  Final line search alpha, max atom move = 0.00094595605 0.1299695
  Iterations, force evaluations = 1000 1877

MPI task timing breakdown:
Section |  min time  |  avg time  |  max time  |%varavg| %total
---------------------------------------------------------------
Pair    | 1.5226     | 1.5226     | 1.5226     |   0.0 | 56.09
Neigh   | 0.82283    | 0.82283    | 0.82283    |   0.0 | 30.31
Comm    | 0.10687    | 0.10687    | 0.10687    |   0.0 |  3.94
Output  | 0.028669   | 0.028669   | 0.028669   |   0.0 |  1.06
Modify  | 0          | 0          | 0          |   0.0 |  0.00
Other   |            | 0.2336     |            |       |  8.60

Nlocal:           6000 ave        6000 max        6000 min
Histogram: 1 0 0 0 0 0 0 0 0 0
Nghost:           2950 ave        2950 max        2950 min
Histogram: 1 0 0 0 0 0 0 0 0 0
Neighs:          46959 ave       46959 max       46959 min
Histogram: 1 0 0 0 0 0 0 0 0 0

Total # of neighbors = 46959
Ave neighs/atom = 7.8265
Neighbor list builds = 385
Dangerous builds = 0

# PART B - MOLECULAR DYNAMICS
# 4) Visualization
thermo 50
thermo_style custom step temp etotal pe ke press

# 5) Run
fix mynve all nve
fix mylgv all langevin 2.0 2.0 0.1 10917
timestep 0.005


dump		1 all atom 500 dump.mixture
dump		2 all image 500 image.*.jpg type type 		zoom 1.6 adiam 1.5
dump_modify	2 pad 5

dump		3 all movie 500 movie.mpg type type 		zoom 1.6 adiam 1.5
dump_modify	3 pad 5

run 50000
Generated 0 of 1 mixed pair_coeff terms from geometric mixing rule
Per MPI rank memory allocation (min/avg/max) = 3.364 | 3.364 | 3.364 Mbytes
   Step          Temp          TotEng         PotEng         KinEng         Press     
      1000   0             -24.115601     -24.115601      0             -0.013210889  
      1050   1.8124303     -19.296464     -22.014656      2.7181924      0.11180308   
      1100   1.9374134     -18.527735     -21.433371      2.9056358      0.078054848  
      1150   1.9922162     -18.338191     -21.326018      2.9878263      0.066512049  
      1200   2.0123521     -18.259807     -21.277832      3.018025       0.060323512  
      1250   1.9942134     -18.174876     -21.165697      2.9908216      0.067436267  
      1300   2.0343442     -18.124051     -21.175059      3.0510077      0.045727447  
      1350   1.9736264     -18.236653     -21.196599      2.9599462      0.036047945  
      1400   2.0120829     -18.279967     -21.297589      3.0176214      0.012350945  
      1450   1.9674167     -18.42181      -21.372443      2.9506332     -0.0037115974 
      1500   1.989495      -18.431031     -21.414776      2.9837451      0.01877229   
      1550   2.0045538     -18.429031     -21.43536       3.0063295      0.031730063  
      1600   1.9829514     -18.616564     -21.590495      2.9739314      0.022615783  
      1650   2.0196291     -18.576218     -21.605157      3.0289388     -0.00090469755
      1700   1.9702118     -18.712401     -21.667226      2.9548252      0.018677164  
      1750   1.9670683     -18.718455     -21.668566      2.9501107      0.038116771  
      1800   1.9857429     -18.823609     -21.801727      2.9781179     -0.02006519   
      1850   1.9993126     -18.906819     -21.905288      2.998469       0.026245563  
      1900   2.0114566     -18.982894     -21.999576      3.016682      -0.0027499256 
      1950   2.0025233     -19.116245     -22.119529      3.0032844     -0.0041305552 
      2000   2.0044224     -19.217047     -22.223179      3.0061325      0.0021832753 
      2050   2.04002       -19.248534     -22.308054      3.05952        0.039788616  
      2100   2.0252751     -19.329201     -22.366607      3.0374063      0.012322415  
      2150   1.9939801     -19.401519     -22.391991      2.9904716     -0.011976949  
      2200   2.0029895     -19.517009     -22.520993      3.0039835     -0.0090860807 
      2250   2.0129666     -19.582514     -22.601461      3.0189466      0.015021044  
      2300   1.9986941     -19.668538     -22.666079      2.9975415      0.03705729   
      2350   1.9861796     -19.815103     -22.793876      2.9787728     -0.016059872  
      2400   1.9747611     -19.960244     -22.921892      2.9616479      0.04512355   
      2450   2.0317567     -19.858029     -22.905156      3.0471272      0.027869215  
      2500   2.0054544     -19.93955      -22.94723       3.0076802     -0.015234479  
      2550   1.9787293     -20.093825     -23.061424      2.9675992     -0.0078823227 
      2600   1.9907319     -20.152049     -23.137649      2.9856002     -0.02428804   
      2650   1.9986139     -20.237372     -23.234793      2.9974212      0.026364427  
      2700   1.9945038     -20.362107     -23.353364      2.991257      -0.061814869  
      2750   2.028271      -20.335951     -23.37785       3.0418994     -0.024572812  
      2800   2.0373805     -20.441644     -23.497205      3.0555614     -0.00017870053
      2850   2.0554892     -20.454835     -23.537555      3.0827199      0.0027521143 
      2900   2.0193897     -20.557172     -23.585751      3.0285796      0.014036212  
      2950   2.0137937     -20.626268     -23.646455      3.0201872      0.01704087   
      3000   2.0307076     -20.678703     -23.724257      3.0455538     -0.013535465  
      3050   1.9794749     -20.845476     -23.814193      2.9687175     -0.0037158428 
      3100   2.0096731     -20.826917     -23.840925      3.0140073     -0.010022359  
      3150   2.0301597     -20.897138     -23.94187       3.044732      -0.01487862   
      3200   1.9946163     -21.046767     -24.038193      2.9914259      0.031988165  
      3250   2.0149292     -21.117376     -24.139266      3.02189        0.018578138  
      3300   2.0201289     -21.199298     -24.228987      3.0296883     -0.010798964  
      3350   1.9667613     -21.30045      -24.2501        2.9496502     -0.02438279   
      3400   2.0119821     -21.334246     -24.351716      3.0174701     -4.5239261e-05
      3450   2.0002599     -21.348789     -24.348678      2.9998898      0.011657391  
      3500   2.0043629     -21.434843     -24.440886      3.0060433      0.0054442058 
      3550   1.9953821     -21.513014     -24.505588      2.9925743      0.012187961  
      3600   1.9936424     -21.642967     -24.632932      2.9899652      0.011383277  
      3650   2.0645485     -21.573274     -24.669581      3.0963067      0.0085181603 
      3700   2.0553981     -21.61511      -24.697694      3.0825833      0.021929141  
      3750   2.0298906     -21.757629     -24.801957      3.0443284      0.014492248  
      3800   2.0157821     -21.862939     -24.886109      3.0231692     -0.01672566   
      3850   2.0161454     -21.931177     -24.954891      3.023714      -0.033578232  
      3900   2.0302034     -21.964582     -25.00938       3.0447975      0.0089007532 
      3950   2.034331      -22.028165     -25.079153      3.0509879     -0.013466139  
      4000   2.015893      -22.072964     -25.096299      3.0233355     -0.028047039  
      4050   2.012202      -22.159356     -25.177156      3.0178         0.0057302432 
      4100   1.9981676     -22.234761     -25.231513      2.9967519      0.0038490512 
      4150   1.9847044     -22.278045     -25.254605      2.9765604     -0.025566169  
      4200   1.988044      -22.394394     -25.375963      2.981569       0.014731014  
      4250   2.0059709     -22.338946     -25.347401      3.0084549     -0.0057302091 
      4300   2.0173112     -22.467431     -25.492894      3.0254625     -0.035571602  
      4350   2.0061112     -22.527154     -25.535819      3.0086653      0.018805806  
      4400   2.027429      -22.537124     -25.577761      3.0406367      0.039339467  
      4450   2.0215138     -22.640364     -25.672129      3.0317653      0.010945425  
      4500   2.0344686     -22.664762     -25.715956      3.0511943      0.040931547  
      4550   2.0076605     -22.751034     -25.762022      3.0109888     -0.0020533298 
      4600   1.9730587     -22.843921     -25.803016      2.9590947     -0.014708394  
      4650   1.9846166     -22.919981     -25.89641       2.9764287     -0.010937225  
      4700   2.0088959     -23.022841     -26.035682      3.0128416      0.0094610476 
      4750   1.9964234     -23.039738     -26.033874      2.9941361     -0.0078461252 
      4800   2.028689      -22.99402      -26.036547      3.0425264     -0.0081687302 
      4850   2.0299688     -23.058457     -26.102903      3.0444458      0.016564979  
      4900   2.015604      -23.183131     -26.206033      3.0229021     -0.043141631  
      4950   1.9850126     -23.28548      -26.262502      2.9770227      0.027552683  
      5000   2.0288063     -23.310036     -26.352738      3.0427023      0.0079551804 
      5050   1.9896281     -23.358678     -26.342623      2.9839447     -0.02157026   
      5100   1.9989952     -23.406891     -26.404884      2.9979931     -0.02277162   
      5150   2.0114341     -23.40088      -26.417528      3.0166483     -0.017019091  
      5200   2.0154387     -23.42726      -26.449914      3.0226542     -0.060067349  
      5250   2.0025596     -23.500471     -26.50381       3.0033388     -0.020279861  
      5300   2.021953      -23.516935     -26.549359      3.032424       0.010318774  
      5350   1.9791688     -23.634201     -26.602459      2.9682585      0.00012635857
      5400   2.0066071     -23.650963     -26.660372      3.0094091      0.0052121692 
      5450   2.0132132     -23.742346     -26.761662      3.0193165      0.0025483742 
      5500   1.9910545     -23.822926     -26.80901       2.986084       0.017982132  
      5550   1.9978121     -23.815025     -26.811244      2.9962187     -0.0047947306 
      5600   2.0191011     -23.854206     -26.882353      3.0281469     -0.03088495   
      5650   2.0046021     -23.913566     -26.919968      3.006402      -0.0024802773 
      5700   2.0149211     -23.929767     -26.951645      3.0218779     -0.0042307572 
      5750   1.9988274     -23.910099     -26.90784       2.9977414      0.0057573335 
      5800   1.9955164     -24.014599     -27.007375      2.9927757     -0.015086457  
      5850   2.0015107     -24.018623     -27.020389      3.0017656     -0.011377564  
      5900   2.0177295     -24.118434     -27.144524      3.0260898     -0.068080636  
      5950   2.0111812     -24.191581     -27.20785       3.0162691     -0.025738504  
      6000   2.0414631     -24.127037     -27.188721      3.0616843     -0.022549003  
      6050   2.0677393     -24.184202     -27.285294      3.101092      -0.032095736  
      6100   2.0307241     -24.221268     -27.266847      3.0455784      0.00771025   
      6150   2.0236712     -24.271593     -27.306593      3.0350009     -0.0071293264 
      6200   1.9923157     -24.391794     -27.37977       2.9879755      0.021089548  
      6250   2.0036497     -24.406863     -27.411837      3.0049736      0.0051048505 
      6300   1.987886      -24.451722     -27.433054      2.981332       0.043006344  
      6350   2.0155518     -24.413883     -27.436706      3.0228238      0.010808903  
      6400   2.0000152     -24.505456     -27.504979      2.9995227     -0.0088090837 
      6450   1.9943333     -24.521318     -27.512319      2.9910014     -0.034252036  
      6500   2.0156343     -24.569675     -27.592622      3.0229476     -0.005893434  
      6550   1.9912325     -24.641187     -27.627538      2.986351       0.032727164  
      6600   1.9994887     -24.669993     -27.668726      2.9987332     -0.022639214  
      6650   2.0027856     -24.670436     -27.674114      3.0036778      0.0046542298 
      6700   1.987378      -24.741584     -27.722154      2.9805702     -0.009583796  
      6750   1.9775799     -24.702426     -27.668301      2.9658755     -0.026755089  
      6800   2.0480418     -24.703429     -27.774979      3.0715507      0.021169009  
      6850   2.0046074     -24.755919     -27.762329      3.00641       -0.021863831  
      6900   2.003574      -24.808937     -27.813797      3.00486        0.020651754  
      6950   2.0398827     -24.732865     -27.792179      3.0593141      0.010469534  
      7000   2.0081473     -24.89824      -27.909958      3.0117189     -0.0093439681 
      7050   1.9975128     -24.925962     -27.921732      2.9957698     -0.0076802603 
      7100   2.0267659     -24.990066     -28.029708      3.0396422      0.0086271279 
      7150   2.0442436     -24.983567     -28.049422      3.0658543     -0.017336162  
      7200   2.0198683     -25.080353     -28.109651      3.0292974      0.00468497   
      7250   2.0035293     -25.162578     -28.167371      3.0047931     -0.012197203  
      7300   1.9891441     -25.2221       -28.205319      2.9832189     -0.024544665  
      7350   2.0101818     -25.233932     -28.248702      3.0147702     -0.030526961  
      7400   2.0328864     -25.249432     -28.298254      3.0488213     -0.014767374  
      7450   2.0046856     -25.310103     -28.316631      3.0065272     -0.011190174  
      7500   1.9916145     -25.385089     -28.372012      2.9869238      0.020687401  
      7550   1.9594879     -25.395607     -28.334349      2.9387419     -0.0097530637 
      7600   2.0128879     -25.363732     -28.382561      3.0188286     -0.0071863948 
      7650   2.0091513     -25.447971     -28.461196      3.0132246     -0.011288635  
      7700   2.0440693     -25.477582     -28.543175      3.065593      -0.032814946  
      7750   2.0028893     -25.560989     -28.564822      3.0038333      0.049503989  
      7800   1.9993393     -25.610557     -28.609066      2.9985091     -0.040717211  
      7850   2.0382168     -25.615382     -28.672197      3.0568156      0.042884832  
      7900   1.974401      -25.620059     -28.581167      2.961108       0.0020702821 
      7950   2.0208476     -25.621372     -28.652138      3.0307662      0.024519906  
      8000   2.0188209     -25.634457     -28.662184      3.0277266      0.0066300355 
      8050   2.0390609     -25.611894     -28.669976      3.0580816     -0.014546453  
      8100   2.0262659     -25.77597      -28.814862      3.0388923     -0.013784466  
      8150   1.9859501     -25.913861     -28.89229       2.9784287      0.023817058  
      8200   1.9864349     -25.953058     -28.932213      2.9791557     -0.015769605  
      8250   2.0309903     -25.975363     -29.021341      3.0459777     -0.029838959  
      8300   2.0169316     -26.053261     -29.078155      3.0248932     -0.061616852  
      8350   2.0299571     -26.04398      -29.088408      3.0444282      0.0070967228 
      8400   2.0203268     -26.075335     -29.10532       3.0299852     -0.031793148  
      8450   2.0313666     -26.065682     -29.112224      3.046542      -0.0079009258 
      8500   2.0277934     -26.126309     -29.167493      3.0411832      0.00042993875
      8550   1.993775      -26.236915     -29.227079      2.990164      -0.029120975  
      8600   1.9893051     -26.30341      -29.28687       2.9834604      0.016252689  
      8650   2.0007307     -26.347292     -29.347888      3.0005958      0.0021858161 
      8700   2.0049422     -26.350956     -29.357868      3.006912       0.013599886  
      8750   2.0338176     -26.263367     -29.313585      3.050218       0.020342244  
      8800   1.9994852     -26.443261     -29.441989      2.9987279      0.0059421292 
      8850   1.977966      -26.53032      -29.496775      2.9664546     -0.064320154  
      8900   2.0121654     -26.493676     -29.511421      3.0177451     -0.011449216  
      8950   1.9562032     -26.534051     -29.467866      2.9338158      0.032337492  
      9000   2.0160782     -26.461271     -29.484884      3.0236133      0.030284948  
      9050   2.0009046     -26.527361     -29.528217      3.0008567      0.041827286  
      9100   1.9749102     -26.566325     -29.528197      2.9618716      0.027761382  
      9150   1.9858683     -26.662898     -29.641204      2.978306      -0.0233914    
      9200   2.0447089     -26.598306     -29.664859      3.0665522      0.0069570349 
      9250   2.0377605     -26.606945     -29.663076      3.0561313     -0.024164064  
      9300   1.9769323     -26.724878     -29.689782      2.9649042      0.0013212088 
      9350   1.9855409     -26.725448     -29.703263      2.9778149     -0.0057944235 
      9400   2.0431612     -26.66447      -29.728701      3.064231      -0.012948254  
      9450   1.9934934     -26.753851     -29.743592      2.9897417      0.017554642  
      9500   2.0134711     -26.799788     -29.819492      3.0197033      0.022560527  
      9550   1.9993586     -26.891586     -29.890124      2.9985381     -0.030859553  
      9600   1.9573762     -26.937523     -29.873097      2.935575      -0.00066507123
      9650   2.0215614     -26.848847     -29.880684      3.0318367     -0.04391657   
      9700   2.0062293     -26.838867     -29.847709      3.0088424     -0.029331669  
      9750   2.0399559     -26.833418     -29.892842      3.0594238     -0.025823832  
      9800   1.9965179     -27.016013     -30.010291      2.9942777     -0.014586847  
      9850   1.9947905     -27.031415     -30.023102      2.991687      -0.025940971  
      9900   2.0175669     -27.082133     -30.107979      3.0258459      0.053487599  
      9950   1.9854098     -27.123622     -30.101241      2.9776184      0.0016166353 
     10000   1.9899928     -27.117542     -30.102034      2.9844917     -0.035695746  
     10050   2.0324841     -27.030541     -30.07876       3.048218       0.035922663  
     10100   2.0049179     -27.144026     -30.150902      3.0068756      0.0050298729 
     10150   2.0217741     -27.166714     -30.19887       3.0321557     -0.012960877  
     10200   1.9920591     -27.257062     -30.244652      2.9875906     -0.042140153  
     10250   1.9973909     -27.287783     -30.28337       2.9955869     -0.0095550422 
     10300   1.9943326     -27.292126     -30.283127      2.9910004     -0.032900368  
     10350   1.9931799     -27.316354     -30.305626      2.9892716      0.0081323559 
     10400   2.0072742     -27.324367     -30.334777      3.0104095     -0.021326723  
     10450   1.9955665     -27.438503     -30.431354      2.9928509     -0.04541489   
     10500   2.0212349     -27.411237     -30.442584      3.031347      -0.027038688  
     10550   1.9930997     -27.478294     -30.467445      2.9891513     -0.0012962006 
     10600   2.0261812     -27.533749     -30.572514      3.0387652     -0.016882444  
     10650   1.9686949     -27.576976     -30.529526      2.9525501     -0.016140432  
     10700   1.9941377     -27.588027     -30.578735      2.990708       0.03439509   
     10750   1.9933471     -27.593217     -30.58274       2.9895224      0.036652379  
     10800   1.9774627     -27.647604     -30.613303      2.9656997      0.0044506308 
     10850   1.9828662     -27.697287     -30.671091      2.9738036     -0.044917185  
     10900   2.0018247     -27.662582     -30.664819      3.0022367     -0.02459905   
     10950   1.9772313     -27.746099     -30.711451      2.9653526      0.017143915  
     11000   1.9971925     -27.671125     -30.666415      2.9952894     -0.058599812  
     11050   2.0330266     -27.715943     -30.764975      3.0490317     -0.047412562  
     11100   2.0157442     -27.785622     -30.808734      3.0231124      0.029791464  
     11150   2.0056826     -27.782714     -30.790736      3.0080225      0.0037097474 
     11200   2.0045441     -27.814434     -30.820749      3.006315       0.018666823  
     11250   2.0147779     -27.801893     -30.823556      3.0216632      0.027215824  
     11300   2.0307044     -27.810284     -30.855833      3.0455489     -0.0021194197 
     11350   1.997322      -27.89468      -30.890164      2.9954837     -0.0043613295 
     11400   2.0091947     -27.884235     -30.897525      3.0132898     -0.030969643  
     11450   1.990126      -27.972614     -30.957306      2.9846915      0.029056307  
     11500   1.9648606     -28.027982     -30.974782      2.9467997     -0.017114456  
     11550   2.0218154     -27.99312      -31.025338      3.0322176     -4.5065639e-05
     11600   1.9713595     -28.111661     -31.068208      2.9565465     -0.02783451   
     11650   1.985337      -28.092644     -31.070153      2.9775091     -0.073500722  
     11700   1.982004      -28.091205     -31.063715      2.9725104     -0.022530018  
     11750   2.0153533     -28.066758     -31.089284      3.0225261     -0.02337589   
     11800   2.0030567     -28.132263     -31.136347      3.0040843      0.0020286694 
     11850   1.9812622     -28.16212      -31.133518      2.971398       0.023764122  
     11900   2.0035658     -28.092573     -31.097421      3.0048478      0.013438008  
     11950   2.0164814     -28.146538     -31.170756      3.024218       0.033056295  
     12000   1.9635809     -28.228641     -31.173522      2.9448805      0.014961928  
     12050   1.9835973     -28.241521     -31.216421      2.9749001     -0.037480917  
     12100   1.9840413     -28.229468     -31.205034      2.9755659     -0.01901824   
     12150   2.0003514     -28.263554     -31.263581      3.000027      -0.014159624  
     12200   1.9884919     -28.339524     -31.321765      2.9822407      0.0040568897 
     12250   1.9860369     -28.291111     -31.26967       2.9785588      0.032281639  
     12300   2.0050169     -28.314061     -31.321085      3.0070241     -0.021632053  
     12350   2.0023056     -28.332558     -31.335516      3.0029579      0.021630264  
     12400   1.9900896     -28.336734     -31.321371      2.984637       0.011959765  
     12450   2.002591      -28.344281     -31.347667      3.0033858     -0.014392468  
     12500   2.0337709     -28.401673     -31.451821      3.0501479     -0.0062389635 
     12550   1.9954722     -28.403996     -31.396705      2.9927094      0.00831215   
     12600   1.9881538     -28.41376      -31.395493      2.9817336      0.038874172  
     12650   1.970239      -28.490081     -31.444947      2.954866      -0.017036891  
     12700   2.0146572     -28.413281     -31.434763      3.0214821     -0.036188307  
     12750   1.9731519     -28.504881     -31.464116      2.9592345      0.005067509  
     12800   2.0397987     -28.455969     -31.515157      3.0591881      0.034475377  
     12850   2.0035256     -28.471803     -31.47659       3.0047876      0.014758276  
     12900   2.0076777     -28.531647     -31.542662      3.0110147      0.024802324  
     12950   1.9864098     -28.629582     -31.6087        2.9791181      0.052559806  
     13000   1.9785834     -28.555975     -31.523355      2.9673805     -0.012148871  
     13050   1.9984351     -28.544881     -31.542034      2.997153      -0.0019115114 
     13100   1.9689194     -28.657929     -31.610816      2.9528868     -0.017233641  
     13150   1.968289      -28.626436     -31.578378      2.9519414     -0.046352053  
     13200   1.9920746     -28.592811     -31.580425      2.9876138     -0.050267301  
     13250   2.0088664     -28.668116     -31.680913      3.0127974      0.053250889  
     13300   1.9954706     -28.649688     -31.642395      2.992707       0.011707526  
     13350   1.9967096     -28.664866     -31.659431      2.9945652      0.020162817  
     13400   1.9776417     -28.77104      -31.737008      2.9659682     -0.009049597  
     13450   2.003726      -28.86152      -31.866608      3.0050881     -0.0077484434 
     13500   2.0126928     -28.811177     -31.829713      3.018536      -0.0074219058 
     13550   2.0127336     -28.829037     -31.847634      3.0185972      0.012961225  
     13600   2.02194       -28.793213     -31.825618      3.0324046     -0.011508306  
     13650   2.0056726     -28.858235     -31.866243      3.0080074      0.023633596  
     13700   1.9898325     -28.892715     -31.876966      2.9842512      0.011741015  
     13750   1.9893535     -28.916225     -31.899758      2.983533      -0.010900442  
     13800   2.0039639     -28.856663     -31.862108      3.0054449     -0.0046543247 
     13850   2.0219887     -28.832426     -31.864903      3.0324775     -0.047363714  
     13900   2.0383084     -28.86762      -31.924573      3.0569531     -0.018033025  
     13950   1.9993877     -28.956539     -31.955121      2.9985817     -0.015981259  
     14000   2.0333384     -28.964699     -32.014198      3.0494992     -0.058480554  
     14050   1.9684602     -29.047842     -32.000041      2.9521982     -0.017762817  
     14100   1.9809434     -29.061589     -32.032508      2.9709198      0.010420177  
     14150   2.0105746     -29.049183     -32.064542      3.0153592     -0.019168624  
     14200   2.0210386     -29.042967     -32.074019      3.0310527     -0.019910598  
     14250   2.0102167     -29.118622     -32.133445      3.0148225     -0.011802632  
     14300   2.0175373     -29.07706      -32.102861      3.0258015      0.010718456  
     14350   2.0210015     -29.081179     -32.112176      3.0309971      0.024492713  
     14400   2.0153321     -29.131407     -32.153901      3.0224943      0.015507817  
     14450   1.9956317     -29.215492     -32.208441      2.9929487      0.01774028   
     14500   1.9705908     -29.218205     -32.173599      2.9553936     -0.024163612  
     14550   2.0045039     -29.226793     -32.233048      3.0062547     -0.019904592  
     14600   2.0440342     -29.257155     -32.322695      3.0655403     -0.0087598089 
     14650   1.9924808     -29.344023     -32.332246      2.9882231     -0.0233862    
     14700   2.0096257     -29.336235     -32.350171      3.0139362      0.011647922  
     14750   2.0400679     -29.363653     -32.423245      3.0595918      0.035541753  
     14800   2.0238658     -29.416093     -32.451386      3.0352927      0.043434569  
     14850   2.0200708     -29.384397     -32.413998      3.0296011      0.043348884  
     14900   1.9988773     -29.43235      -32.430166      2.9978163     -0.006395158  
     14950   1.9693814     -29.535677     -32.489256      2.9535797      0.002466707  
     15000   2.0077256     -29.498986     -32.510072      3.0110864     -0.010439623  
     15050   1.9713523     -29.589295     -32.545831      2.9565356     -0.051697591  
     15100   1.9914086     -29.596983     -32.583598      2.986615      -0.010560132  
     15150   1.9811487     -29.645628     -32.616856      2.9712277     -0.003936918  
     15200   1.9681433     -29.659566     -32.611289      2.951723       0.017275814  
     15250   2.0308331     -29.591415     -32.637157      3.0457419     -0.024945063  
     15300   1.9828333     -29.644597     -32.618352      2.9737542     -0.0055218561 
     15350   1.984246      -29.656692     -32.632565      2.9758729      0.017078967  
     15400   1.9957607     -29.683462     -32.676604      2.9931422     -0.037064054  
     15450   2.0063568     -29.715297     -32.72433       3.0090336     -0.022051032  
     15500   1.9706805     -29.80731      -32.762838      2.955528      -0.027082088  
     15550   1.9889151     -29.82574      -32.808616      2.9828755      0.014145111  
     15600   1.9774536     -29.811781     -32.777467      2.9656861      0.044117103  
     15650   2.0055612     -29.790419     -32.79826       3.0078404     -0.022361462  
     15700   1.992569      -29.81291      -32.801265      2.9883553     -0.013158197  
     15750   2.025723      -29.730948     -32.769026      3.0380781      0.022227452  
     15800   1.9747854     -29.82364      -32.785325      2.9616844     -0.040440146  
     15850   1.9880999     -29.84153      -32.823183      2.9816528      0.042051667  
     15900   1.9830018     -29.861021     -32.835028      2.974007      -0.013533787  
     15950   2.0229368     -29.779439     -32.813339      3.0338994      0.0031120383 
     16000   1.9907341     -29.92253      -32.908133      2.9856035      0.026086063  
     16050   1.9870028     -29.922519     -32.902526      2.9800074      0.032149087  
     16100   2.0053788     -29.931656     -32.939223      3.0075669      0.0049671849 
     16150   2.0110301     -29.903842     -32.919884      3.0160425     -0.029131397  
     16200   2.0361558     -29.905521     -32.959246      3.0537247      0.0063248713 
     16250   1.9644424     -30.071117     -33.01729       2.9461725      0.022841151  
     16300   1.9780456     -29.990145     -32.956719      2.966574       0.033644238  
     16350   1.9896745     -29.947794     -32.931809      2.9840144      0.025331089  
     16400   2.0585106     -29.932637     -33.019888      3.0872513      0.06294751   
     16450   2.0375177     -29.915861     -32.971628      3.0557672      0.024654229  
     16500   2.0257061     -29.942592     -32.980644      3.0380528      0.069329593  
     16550   2.024309      -29.972559     -33.008517      3.0359575     -0.010006894  
     16600   1.9587204     -30.176687     -33.114278      2.9375909      0.0059122331 
     16650   2.0004582     -30.127052     -33.127239      3.0001872     -0.043564744  
     16700   1.992182      -30.149044     -33.136819      2.9877749     -0.0091103872 
     16750   2.0092627     -30.154746     -33.168138      3.0133917     -0.040675332  
     16800   1.9804432     -30.199743     -33.169912      2.9701697      0.046418884  
     16850   2.0055283     -30.134819     -33.14261       3.007791      -0.0011069513 
     16900   2.0050179     -30.180051     -33.187076      3.0070256     -0.030442751  
     16950   1.9653302     -30.261693     -33.209197      2.947504      -0.017998771  
     17000   2.0117497     -30.207218     -33.22434       3.0171216     -0.025974183  
     17050   1.9949353     -30.21633      -33.208234      2.9919042     -0.031192548  
     17100   1.9896252     -30.266086     -33.250026      2.9839403     -0.020539466  
     17150   2.0247471     -30.239651     -33.276265      3.0366144      0.028008673  
     17200   2.0340384     -30.186842     -33.237391      3.0505491     -0.03436926   
     17250   1.9900203     -30.288085     -33.272618      2.9845329      0.023182919  
     17300   2.0042318     -30.337283     -33.34313       3.0058466     -0.017292333  
     17350   1.9562874     -30.432195     -33.366137      2.933942       0.0058374825 
     17400   1.9952098     -30.378585     -33.370901      2.992316       0.0016205598 
     17450   1.9931794     -30.390982     -33.380252      2.9892707     -0.0087639362 
     17500   1.9677698     -30.452404     -33.403567      2.9511628     -0.024947682  
     17550   2.0010944     -30.411316     -33.412457      3.0011414      0.031195645  
     17600   1.9912963     -30.407441     -33.393888      2.9864467     -0.025304455  
     17650   1.9925906     -30.434115     -33.422503      2.9883877     -0.0060752881 
     17700   1.9882985     -30.467802     -33.449753      2.9819507      0.026659989  
     17750   1.9986263     -30.414045     -33.411485      2.9974398      0.015947876  
     17800   2.0198869     -30.428581     -33.457906      3.0293254      0.022372087  
     17850   1.9869023     -30.488723     -33.46858       2.9798568     -0.021836609  
     17900   2.00536       -30.450327     -33.457866      3.0075387      0.0027548295 
     17950   1.9907249     -30.517926     -33.503516      2.9855897      0.0041459541 
     18000   2.0064837     -30.599368     -33.608592      3.0092239      0.024976573  
     18050   1.9878567     -30.619352     -33.600641      2.9812881     -0.022368648  
     18100   2.0054865     -30.56301      -33.570738      3.0077284      0.0098404638 
     18150   2.0348588     -30.576079     -33.627858      3.0517795      0.035637871  
     18200   1.9805275     -30.702705     -33.673001      2.9702961      0.026165987  
     18250   2.0042587     -30.646745     -33.652632      3.0058869      0.043447716  
     18300   2.0211334     -30.653855     -33.68505       3.0311949     -0.0041624085 
     18350   1.9540667     -30.792569     -33.72318       2.9306115     -0.010455984  
     18400   2.0013226     -30.665676     -33.667159      3.0014836      0.031512849  
     18450   1.9672355     -30.72534      -33.675701      2.9503614     -0.017718484  
     18500   2.0435977     -30.591298     -33.656184      3.0648856      0.037893033  
     18550   2.0124033     -30.679932     -33.698034      3.0181019      0.046277109  
     18600   1.9946941     -30.756246     -33.747788      2.9915425      0.020973019  
     18650   2.0215207     -30.737067     -33.768842      3.0317757      0.024900466  
     18700   1.9710475     -30.753763     -33.709842      2.9560785     -0.061541311  
     18750   1.9696516     -30.780341     -33.734326      2.953985       0.022091231  
     18800   1.9769516     -30.809855     -33.774789      2.9649332      0.065430166  
     18850   1.9958675     -30.791083     -33.784386      2.9933022     -0.040182183  
     18900   2.0228127     -30.784705     -33.818418      3.0337133     -0.054735312  
     18950   2.0249723     -30.747704     -33.784656      3.0369521     -0.036166685  
     19000   1.9923021     -30.768925     -33.75688       2.987955      -0.024466543  
     19050   1.9963033     -30.855323     -33.849279      2.9939558      0.0010729398 
     19100   2.0028575     -30.93361      -33.937396      3.0037855     -0.045149467  
     19150   1.9689992     -31.031028     -33.984035      2.9530065      0.016759171  
     19200   1.9488498     -31.026452     -33.949239      2.9227874      0.0079734971 
     19250   2.0168391     -30.86651      -33.891264      3.0247544      0.017161068  
     19300   1.9839395     -31.009076     -33.984489      2.9754133     -0.0082669905 
     19350   2.01047       -30.950725     -33.965927      3.0152024      0.10157575   
     19400   2.0338787     -30.901007     -33.951316      3.0503095      0.016715076  
     19450   1.991128      -30.981315     -33.967509      2.9861942      0.040715164  
     19500   1.9829361     -30.963875     -33.937784      2.9739085     -0.0052928969 
     19550   2.0280271     -30.950562     -33.992096      3.0415336      0.031985492  
     19600   2.0205715     -30.950354     -33.980706      3.0303522      0.052932437  
     19650   2.0092909     -30.977317     -33.990751      3.0134341      0.025061626  
     19700   1.9965536     -31.008928     -34.00326       2.9943313     -0.025993594  
     19750   1.9948127     -31.010498     -34.002218      2.9917204      0.0056316426 
     19800   2.0191977     -30.986174     -34.014466      3.0282917     -0.018050525  
     19850   2.0329122     -30.952781     -34.001641      3.0488601      0.038382205  
     19900   2.0044575     -31.006899     -34.013084      3.0061851     -0.040472244  
     19950   1.9690053     -31.104551     -34.057567      2.9530157     -0.026544144  
     20000   2.0065841     -30.997767     -34.007142      3.0093746     -0.0013419066 
     20050   2.0235743     -31.029014     -34.063869      3.0348556      0.024696698  
     20100   1.9869344     -31.122633     -34.102538      2.9799048      0.057419876  
     20150   2.0261889     -31.030043     -34.06882       3.0387768      0.037571507  
     20200   1.981069      -31.135546     -34.106654      2.9711082     -0.016409503  
     20250   1.9863562     -31.207524     -34.186562      2.9790378     -0.01294999   
     20300   2.0378555     -31.0816       -34.137874      3.0562737      0.0052289551 
     20350   2.0163689     -31.112715     -34.136764      3.0240492     -0.014822733  
     20400   2.0178739     -31.106785     -34.133092      3.0263063     -0.010576016  
     20450   1.953678      -31.192172     -34.1222        2.9300285      0.0082496326 
     20500   1.990577      -31.133724     -34.119092      2.9853678      0.012665125  
     20550   2.0276583     -31.091798     -34.132778      3.0409806     -0.022834282  
     20600   2.0040438     -31.137538     -34.143103      3.0055647     -0.033117249  
     20650   1.9724312     -31.267099     -34.225253      2.9581537     -0.025231833  
     20700   2.0014987     -31.226867     -34.228615      3.0017477      0.013034888  
     20750   1.9611229     -31.285101     -34.226295      2.9411941     -0.009058709  
     20800   2.0042212     -31.186556     -34.192386      3.0058308      0.022313783  
     20850   2.0026704     -31.182946     -34.186451      3.003505       0.029255878  
     20900   2.0322311     -31.210293     -34.258132      3.0478386      0.026352073  
     20950   1.9807119     -31.237227     -34.2078        2.9705727     -0.011808481  
     21000   2.0184146     -31.306916     -34.334033      3.0271173      0.01463679   
     21050   2.0101137     -31.279398     -34.294066      3.014668       0.01711517   
     21100   2.0161707     -31.336231     -34.359983      3.023752      -0.023930079  
     21150   2.0225175     -31.269192     -34.302463      3.0332705     -0.029816041  
     21200   1.9904445     -31.317933     -34.303102      2.9851692     -0.037426814  
     21250   1.9915528     -31.33354      -34.320371      2.9868312     -0.015503312  
     21300   2.0104809     -31.253557     -34.268776      3.0152187     -0.013294409  
     21350   2.0216078     -31.294833     -34.326739      3.0319062     -0.044038906  
     21400   2.0263352     -31.35499      -34.393986      3.0389962      0.00955006   
     21450   1.9623759     -31.453592     -34.396665      2.9430732     -0.010766889  
     21500   1.9842884     -31.550718     -34.526654      2.9759365     -0.010208391  
     21550   1.9954337     -31.413158     -34.40581       2.9926518      0.007958997  
     21600   2.002376      -31.381173     -34.384236      3.0030635      0.0021986037 
     21650   2.021624      -31.420993     -34.452923      3.0319306      0.024113479  
     21700   2.006678      -31.474357     -34.483872      3.0095153     -0.042508749  
     21750   1.9872093     -31.522066     -34.502383      2.9803171     -0.0023991286 
     21800   2.0038357     -31.482532     -34.487785      3.0052525     -0.0018969583 
     21850   2.0170556     -31.519934     -34.545014      3.0250791      0.059042494  
     21900   2.02434       -31.544648     -34.580652      3.0360039      0.0074716728 
     21950   2.0112085     -31.468308     -34.484618      3.01631        0.0056562785 
     22000   2.0429351     -31.495658     -34.55955       3.0638919      0.00082949307
     22050   1.9825883     -31.615585     -34.588972      2.9733869      0.015153682  
     22100   2.0389143     -31.467256     -34.525118      3.0578617      0.032640705  
     22150   1.9997379     -31.601722     -34.600829      2.9991069     -0.013937292  
     22200   2.0025504     -31.596723     -34.600048      3.0033249     -0.029955149  
     22250   2.0017487     -31.650559     -34.652682      3.0021226      0.018460253  
     22300   2.0199015     -31.625915     -34.655263      3.0293472     -0.020178908  
     22350   1.9882165     -31.640385     -34.622212      2.9818277      0.028750388  
     22400   1.977443      -31.730189     -34.695859      2.9656702      0.010835425  
     22450   1.9609633     -31.769931     -34.710886      2.9409547     -0.0031817586 
     22500   2.0100398     -31.622897     -34.637454      3.0145572      0.029674593  
     22550   2.0289152     -31.546317     -34.589182      3.0428655     -0.0051982667 
     22600   2.0269725     -31.644833     -34.684785      3.0399519      0.0020256436 
     22650   2.0124017     -31.757689     -34.775789      3.0180994      0.036193291  
     22700   2.0006748     -31.717561     -34.718073      3.000512      -0.0068971493 
     22750   1.9939824     -31.718847     -34.709323      2.9904751     -0.014249094  
     22800   2.0288786     -31.660358     -34.703169      3.0428106      0.011941106  
     22850   1.9984499     -31.725232     -34.722407      2.9971752      0.0021192976 
     22900   1.9887383     -31.691537     -34.674147      2.9826103     -0.050093428  
     22950   2.0172743     -31.714656     -34.740063      3.0254072     -0.030222472  
     23000   2.0425549     -31.766457     -34.829779      3.0633217      0.016596905  
     23050   2.0164324     -31.74994      -34.774084      3.0241445      0.019843541  
     23100   1.9777727     -31.699639     -34.665804      2.9661646      0.010518384  
     23150   2.0171035     -31.777906     -34.803057      3.025151      -0.0026570879 
     23200   1.9811306     -31.778948     -34.750149      2.9712007     -0.0094014585 
     23250   2.0231146     -31.761435     -34.795601      3.0341662      0.022411347  
     23300   2.0277589     -31.752404     -34.793535      3.0411315     -0.029787009  
     23350   1.9670079     -31.810379     -34.760399      2.95002       -0.0087108203 
     23400   2.002914      -31.793106     -34.796976      3.0038703      0.010958935  
     23450   2.0079945     -31.846821     -34.858311      3.0114898     -0.012484565  
     23500   2.0057753     -31.871816     -34.879977      3.0081615      0.0088903735 
     23550   2.0019415     -31.8392       -34.841612      3.0024117     -0.01638906   
     23600   2.0269653     -31.85079      -34.890731      3.0399412     -0.0070884443 
     23650   2.0233002     -31.83832      -34.872764      3.0344445     -0.042850446  
     23700   1.9901485     -31.933965     -34.918691      2.9847252     -0.0040914847 
     23750   2.0033008     -31.876432     -34.880882      3.0044503      0.0081811787 
     23800   1.9686546     -32.016115     -34.968605      2.9524898     -0.019855751  
     23850   1.9954635     -31.962074     -34.95477       2.9926964      0.016302499  
     23900   2.0143081     -31.960617     -34.981575      3.0209586      0.04397762   
     23950   1.9788158     -31.970982     -34.938711      2.967729       0.044646514  
     24000   1.9928458     -32.010702     -34.999473      2.9887705      0.026826072  
     24050   1.9742603     -32.010029     -34.970926      2.9608969      0.035981629  
     24100   2.0395099     -31.929346     -34.988101      3.058755      -0.025789915  
     24150   2.007228      -31.963219     -34.973559      3.0103401      0.034272369  
     24200   2.0031942     -31.939034     -34.943325      3.0042905     -0.01546563   
     24250   1.9990818     -31.98968      -34.987803      2.9981229      0.04360513   
     24300   1.9919942     -31.9759       -34.963393      2.9874933      0.0057095777 
     24350   2.0113958     -31.954333     -34.970924      3.0165908      0.037704598  
     24400   2.0301735     -31.958188     -35.002941      3.0447527     -0.0072143108 
     24450   1.9721524     -32.122689     -35.080424      2.9577356     -0.0099640855 
     24500   1.9560745     -32.173169     -35.106791      2.9336228      0.0053901158 
     24550   2.0301291     -32.020954     -35.06564       3.044686       0.01916671   
     24600   1.9996548     -32.040265     -35.039247      2.9989822      0.045127923  
     24650   2.0117172     -31.990379     -35.007452      3.0170729      0.0048645944 
     24700   1.9988849     -32.041963     -35.039791      2.9978277      0.024872491  
     24750   2.0249015     -32.073499     -35.110345      3.0368461     -0.018454007  
     24800   2.0091699     -32.126041     -35.139294      3.0132525      0.04411359   
     24850   1.9772209     -32.066573     -35.03191       2.9653371      0.011025751  
     24900   2.0135807     -32.055237     -35.075104      3.0198676     -0.01314696   
     24950   2.0397683     -32.032699     -35.091842      3.0591425      0.012123318  
     25000   2.0074805     -32.096365     -35.107084      3.0107188     -0.023918663  
     25050   1.9875487     -32.138653     -35.119479      2.9808262     -0.022780172  
     25100   2.0309729     -32.042685     -35.088636      3.0459516      0.041137057  
     25150   2.0131902     -32.029245     -35.048527      3.019282       0.0062228077 
     25200   2.0115486     -32.033001     -35.049821      3.01682       -0.0046654622 
     25250   2.0008721     -32.037129     -35.037937      3.0008079     -0.01085912   
     25300   2.0107555     -32.035783     -35.051413      3.0156305     -0.037888636  
     25350   2.0182264     -32.074356     -35.101191      3.0268351     -0.028700043  
     25400   2.0186997     -32.068779     -35.096324      3.0275448     -0.0091932836 
     25450   2.0039276     -32.154914     -35.160304      3.0053904      0.018992255  
     25500   1.9900976     -32.178587     -35.163236      2.9846489      4.7875839e-05
     25550   2.0297018     -32.112623     -35.156669      3.0440453     -0.0091572535 
     25600   1.9945204     -32.139126     -35.130408      2.9912819     -0.018924563  
     25650   1.976652      -32.237591     -35.202075      2.9644839     -0.017918463  
     25700   2.0021262     -32.215453     -35.218142      3.0026888     -0.012725382  
     25750   2.0007492     -32.212537     -35.213161      3.0006237      0.0035463921 
     25800   1.9851822     -32.242801     -35.220078      2.9772771     -0.0015184284 
     25850   2.0114967     -32.182938     -35.199681      3.0167422     -0.040778879  
     25900   1.9818391     -32.20253      -35.174793      2.9722632     -0.021386444  
     25950   1.9500473     -32.333666     -35.258249      2.9245834     -0.011124447  
     26000   2.0070127     -32.249492     -35.259509      3.0100173     -0.048450849  
     26050   1.9595477     -32.256376     -35.195207      2.9388317      0.0043118787 
     26100   2.0237367     -32.173093     -35.208192      3.0350991     -0.039260121  
     26150   1.9868303     -32.249773     -35.229522      2.9797488     -0.084758762  
     26200   2.0291134     -32.157268     -35.200431      3.0431628      0.012303339  
     26250   1.9674048     -32.37443      -35.325046      2.9506154      0.0046021863 
     26300   2.025374      -32.215376     -35.25293       3.0375546      0.065081251  
     26350   2.0172092     -32.265425     -35.290735      3.0253096     -0.049997196  
     26400   1.9999812     -32.306674     -35.306146      2.9994718     -0.030179991  
     26450   2.0276264     -32.199472     -35.240404      3.0409327      0.0080256558 
     26500   1.9958268     -32.25844      -35.251681      2.9932413      0.012834636  
     26550   2.0314152     -32.259606     -35.306221      3.0466149      0.017917839  
     26600   1.9914927     -32.321126     -35.307867      2.9867412      0.01485622   
     26650   2.0239759     -32.281927     -35.317385      3.0354578      0.005842387  
     26700   1.9937733     -32.268746     -35.258907      2.9901615      0.033730974  
     26750   1.9815803     -32.346406     -35.318281      2.9718751      0.017072179  
     26800   2.0047383     -32.362571     -35.369177      3.0066063     -0.097771972  
     26850   2.011199      -32.376322     -35.392617      3.0162957      0.0079285752 
     26900   2.0018556     -32.350229     -35.352512      3.0022829      0.015166697  
     26950   1.9911436     -32.375705     -35.361923      2.9862176     -0.0080153108 
     27000   1.9991727     -32.378192     -35.376451      2.9982593      0.067950979  
     27050   1.9776358     -32.456923     -35.422883      2.9659593      0.03825994   
     27100   2.0185084     -32.392676     -35.419934      3.027258      -0.021616919  
     27150   2.0232845     -32.420447     -35.454867      3.0344209      0.02831852   
     27200   2.0005435     -32.432809     -35.433124      3.0003152     -0.0077625915 
     27250   1.9492616     -32.477621     -35.401026      2.9234051     -0.038556969  
     27300   1.9901811     -32.542603     -35.527378      2.9847741      0.013310525  
     27350   1.9987401     -32.520472     -35.518082      2.9976105     -0.032004326  
     27400   2.0005476     -32.475365     -35.475687      3.0003212      0.0047768403 
     27450   1.996071      -32.587907     -35.581514      2.9936074      0.018121135  
     27500   2.0164127     -32.494836     -35.518951      3.024115      -0.021402836  
     27550   2.0421844     -32.438514     -35.50128       3.062766       0.014830837  
     27600   1.9781412     -32.567223     -35.533941      2.9667173     -0.018557139  
     27650   1.9816749     -32.542202     -35.514219      2.972017      -0.0041488245 
     27700   2.0256204     -32.527056     -35.56498       3.0379242     -0.017290014  
     27750   2.0137657     -32.495171     -35.515316      3.0201451      0.0073039854 
     27800   2.0020529     -32.594475     -35.597054      3.0025788      0.028034223  
     27850   2.0073747     -32.577867     -35.588427      3.0105603     -0.017715757  
     27900   2.0025691     -32.554844     -35.558197      3.003353      -0.024499597  
     27950   1.985464      -32.636189     -35.613889      2.9776996     -0.012293083  
     28000   1.9528482     -32.692028     -35.620813      2.9287841      0.038166145  
     28050   1.9874385     -32.633178     -35.613839      2.9806609     -0.0091892529 
     28100   2.0267573     -32.548139     -35.587768      3.0396292     -0.0013244168 
     28150   2.0053032     -32.577194     -35.584648      3.0074535     -0.0056171101 
     28200   2.0339947     -32.570416     -35.6209        3.0504835     -0.045758239  
     28250   2.0254098     -32.604358     -35.641966      3.0376083      0.05868287   
     28300   2.0313824     -32.693374     -35.73994       3.0465657     -0.0043680832 
     28350   1.9946677     -32.691259     -35.682762      2.9915028     -0.00091331883
     28400   1.9985814     -32.702685     -35.700057      2.9973724      0.016458994  
     28450   1.9911917     -32.70811      -35.694399      2.9862897     -0.033664503  
     28500   2.0136044     -32.725913     -35.745817      3.0199033     -0.012538906  
     28550   1.9622211     -32.831719     -35.77456       2.942841      -0.0065846531 
     28600   2.0094619     -32.806232     -35.819922      3.0136905     -0.038532353  
     28650   2.011942      -32.819801     -35.837211      3.01741       -0.018852589  
     28700   2.0183659     -32.749007     -35.776051      3.0270443     -0.069824835  
     28750   1.9815636     -32.867475     -35.839325      2.97185        0.045909209  
     28800   1.9759976     -32.875356     -35.838858      2.9635024      0.030138792  
     28850   1.9636379     -32.849589     -35.794555      2.9449659     -0.029022525  
     28900   1.9977965     -32.838153     -35.834348      2.9961953     -0.018554327  
     28950   2.0605079     -32.753376     -35.843622      3.0902467      0.061896871  
     29000   1.9926731     -32.84709      -35.835602      2.9885116     -0.031985597  
     29050   1.989089      -32.939467     -35.922604      2.9831363     -0.0019823046 
     29100   1.9782796     -32.96539      -35.932315      2.9669248      0.035707521  
     29150   1.9978436     -32.966996     -35.963262      2.9962659      0.005293904  
     29200   1.9903186     -32.897107     -35.882087      2.9849804      0.0080885955 
     29250   1.995308      -32.898037     -35.8905        2.9924632     -0.018078544  
     29300   2.027346      -32.849255     -35.889767      3.0405122      0.041242583  
     29350   2.0131909     -32.87959      -35.898873      3.0192831     -0.0015179229 
     29400   1.9588227     -32.960592     -35.898337      2.9377443     -0.022852675  
     29450   2.0091472     -32.881077     -35.894296      3.0132185     -0.035297611  
     29500   2.0262487     -32.891494     -35.930361      3.0388665     -0.0096316582 
     29550   2.0042043     -32.907878     -35.913683      3.0058055     -0.020925547  
     29600   2.0425313     -32.844899     -35.908185      3.0632864      0.0023790245 
     29650   1.9858355     -32.961113     -35.93937       2.9782568     -0.062617709  
     29700   2.0409607     -32.982242     -36.043173      3.0609308      0.044564733  
     29750   1.9984948     -33.031497     -36.02874       2.9972425     -0.014045626  
     29800   2.0011689     -33.01732      -36.018573      3.001253      -0.018198099  
     29850   1.9872982     -33.105366     -36.085817      2.9804505      0.055857387  
     29900   1.9660627     -33.126106     -36.074708      2.9486025     -0.0091157848 
     29950   1.9684814     -33.092707     -36.044937      2.95223       -0.057889763  
     30000   2.0295128     -33.0772       -36.120962      3.0437619      0.0073911998 
     30050   2.0517474     -33.02346      -36.100568      3.0771082     -0.040925182  
     30100   1.9797231     -33.09234      -36.06143       2.9690897     -0.022757373  
     30150   2.0059898     -33.116939     -36.125422      3.0084831     -0.02055921   
     30200   2.0028405     -33.168622     -36.172382      3.00376        0.017719801  
     30250   2.008202      -33.133764     -36.145565      3.011801      -0.0056000362 
     30300   2.0278541     -33.127203     -36.168477      3.0412741      0.019660894  
     30350   1.990609      -33.177002     -36.162418      2.9854158     -0.051470826  
     30400   1.997785      -33.204833     -36.201011      2.9961781      0.041110914  
     30450   1.9922697     -33.233686     -36.221593      2.9879064     -0.010767866  
     30500   1.982233      -33.304317     -36.277171      2.972854      -0.0015545094 
     30550   1.956019      -33.285775     -36.219315      2.9335395      0.046988603  
     30600   2.0115216     -33.190933     -36.207712      3.0167795      0.0091799314 
     30650   2.0109286     -33.18536      -36.201251      3.0158901      0.0050538149 
     30700   2.0136443     -33.195571     -36.215534      3.0199631     -0.023408667  
     30750   1.9927296     -33.200329     -36.188926      2.9885963      0.015220257  
     30800   2.018372      -33.15601      -36.183063      3.0270534      0.04341869   
     30850   1.9873448     -33.225626     -36.206147      2.9805204      0.00063095463
     30900   2.005291      -33.223159     -36.230595      3.0074352      0.021587785  
     30950   1.9977948     -33.236692     -36.232885      2.9961928      0.02179542   
     31000   2.0110653     -33.236609     -36.252704      3.0160951     -0.018362989  
     31050   2.022611      -33.278016     -36.311426      3.0334108     -0.013462447  
     31100   1.9892789     -33.300355     -36.283776      2.9834211     -0.030056828  
     31150   2.0220463     -33.230657     -36.263221      3.0325639     -0.030865955  
     31200   2.0134846     -33.317173     -36.336897      3.0197235      0.036649918  
     31250   2.023349      -33.280326     -36.314843      3.0345177      0.024914997  
     31300   1.9932172     -33.34336      -36.332687      2.9893275      0.013379892  
     31350   1.9902401     -33.338574     -36.323436      2.9848625      0.026555267  
     31400   2.00012       -33.280134     -36.279814      2.99968        0.00077720389
     31450   1.9962809     -33.297062     -36.290984      2.9939222     -0.03648352   
     31500   1.9896855     -33.342034     -36.326065      2.9840309     -0.014385876  
     31550   2.0115821     -33.268627     -36.285497      3.0168703     -0.0062274752 
     31600   2.0018349     -33.335125     -36.337377      3.0022519      0.0030234799 
     31650   2.0129324     -33.343161     -36.362056      3.0188954      0.050923791  
     31700   2.0042729     -33.358174     -36.364082      3.0059083     -0.0073727599 
     31750   1.9990375     -33.340057     -36.338114      2.9980565     -0.0026165674 
     31800   2.0237013     -33.39237      -36.427416      3.035046       0.040328344  
     31850   1.9696112     -33.447107     -36.401031      2.9539243      0.042055839  
     31900   2.000716      -33.383286     -36.38386       3.0005738      0.037964111  
     31950   1.9869948     -33.334182     -36.314178      2.9799955     -0.016866817  
     32000   1.9784569     -33.382179     -36.34937       2.9671908     -0.01001085   
     32050   2.0276334     -33.347259     -36.388202      3.0409432      0.015037066  
     32100   2.030913      -33.31641      -36.362272      3.0458618     -0.023740772  
     32150   1.9833447     -33.418311     -36.392832      2.9745213     -0.035236915  
     32200   1.9808434     -33.426465     -36.397235      2.97077       -0.00015346002
     32250   2.0139347     -33.448549     -36.468947      3.0203986      0.0043220833 
     32300   2.0242856     -33.418656     -36.454578      3.0359223     -0.010806251  
     32350   2.0177199     -33.387803     -36.413879      3.0260754      0.029585805  
     32400   2.0111012     -33.391422     -36.407571      3.0161491      0.027939483  
     32450   2.0069856     -33.368077     -36.378053      3.0099766     -0.00064113288
     32500   2.022972      -33.412159     -36.446111      3.0339522      0.00011279744
     32550   1.9658042     -33.519973     -36.468188      2.9482149     -0.0011959761 
     32600   2.0072453     -33.502463     -36.51283       3.0103662     -0.022232374  
     32650   1.9723897     -33.505993     -36.464085      2.9580915     -0.026913436  
     32700   1.9655784     -33.514445     -36.462321      2.9478762     -0.0017622548 
     32750   2.0224942     -33.476894     -36.510129      3.0332357     -0.01649278   
     32800   2.0069141     -33.492382     -36.502252      3.0098694      0.015569371  
     32850   2.0097687     -33.458187     -36.472338      3.0141507     -0.0047744482 
     32900   2.0160542     -33.483812     -36.507389      3.0235774     -0.012130765  
     32950   1.9719998     -33.585263     -36.54277       2.9575067      0.0017487669 
     33000   1.9763506     -33.568068     -36.532099      2.9640318      0.0026962273 
     33050   1.9919462     -33.508605     -36.496026      2.9874213      0.018137564  
     33100   1.9641368     -33.541776     -36.48749       2.9457141     -0.014927935  
     33150   2.0046396     -33.531569     -36.538027      3.0064582     -0.0042714066 
     33200   2.0083946     -33.554844     -36.566934      3.0120899     -0.0047533415 
     33250   2.0063256     -33.519109     -36.528096      3.0089867     -0.020622974  
     33300   1.9938227     -33.563287     -36.553523      2.9902357      0.042930636  
     33350   1.9841202     -33.627979     -36.603664      2.9756843     -0.030454297  
     33400   2.0263305     -33.556485     -36.595474      3.0389891      0.0015917301 
     33450   1.9802815     -33.64203      -36.611957      2.9699272     -0.0026556223 
     33500   1.9937594     -33.608074     -36.598215      2.9901406     -0.00093588032
     33550   2.0411729     -33.623462     -36.684711      3.061249       0.013881983  
     33600   1.9982007     -33.606298     -36.6031        2.9968014      0.018846381  
     33650   1.9732641     -33.646754     -36.606156      2.9594028      0.0090872091 
     33700   1.9630794     -33.708869     -36.652997      2.9441284     -0.016382414  
     33750   1.9680198     -33.699185     -36.650723      2.9515377      0.018059297  
     33800   1.9899787     -33.726062     -36.710533      2.9844705     -0.022176391  
     33850   1.9901518     -33.691171     -36.675901      2.9847301      0.038770471  
     33900   1.9782047     -33.727405     -36.694217      2.9668125      0.034186407  
     33950   2.0251239     -33.691088     -36.728267      3.0371796     -0.00021251971
     34000   2.0040728     -33.731902     -36.73751       3.0056083      0.05933097   
     34050   1.9878357     -33.75304      -36.734297      2.9812566     -0.040238275  
     34100   1.9961075     -33.727583     -36.721246      2.9936623      0.023607061  
     34150   2.0012172     -33.662277     -36.663602      3.0013255      0.035382418  
     34200   1.9998505     -33.718496     -36.717772      2.9992758      0.03551512   
     34250   2.0147441     -33.664252     -36.685864      3.0216124     -0.066361858  
     34300   1.9761825     -33.722286     -36.686065      2.9637797     -0.0042955919 
     34350   2.0122094     -33.72247      -36.740281      3.017811      -0.03580344   
     34400   2.0020612     -33.72404      -36.726631      3.0025914     -0.0040867055 
     34450   2.0095949     -33.754497     -36.768387      3.0138899      0.017389828  
     34500   2.0210288     -33.766697     -36.797735      3.0310379     -0.0045338381 
     34550   1.9749979     -33.802661     -36.764665      2.9620032     -0.050591061  
     34600   2.0452783     -33.69324      -36.760646      3.0674061      0.044386202  
     34650   2.0514769     -33.666111     -36.742813      3.0767025     -0.053617334  
     34700   1.9807096     -33.796115     -36.766684      2.9705693     -0.016878762  
     34750   2.0307633     -33.783433     -36.829071      3.0456372     -0.015329125  
     34800   1.9960451     -33.79306      -36.786629      2.9935686     -0.022304263  
     34850   2.0049378     -33.821502     -36.828407      3.0069054     -0.02046724   
     34900   1.9838408     -33.835824     -36.811089      2.9752652      0.012964727  
     34950   2.0008784     -33.844117     -36.844934      3.0008174      0.0098276313 
     35000   2.0150267     -33.825093     -36.84713       3.0220362     -0.021085273  
     35050   1.9784019     -33.929298     -36.896406      2.9671082      0.00015791718
     35100   1.9745423     -33.906414     -36.867734      2.9613199     -0.033862151  
     35150   1.9817158     -33.848057     -36.820135      2.9720782      0.042925115  
     35200   1.9980797     -33.851886     -36.848506      2.9966201      0.00094221816
     35250   2.0064788     -33.872475     -36.881692      3.0092165      0.0083263125 
     35300   1.9848094     -33.859701     -36.836419      2.9767178     -0.021237433  
     35350   2.0310083     -33.838667     -36.884671      3.0460048      0.0070056371 
     35400   1.9789215     -33.891783     -36.85967       2.9678874     -0.025127958  
     35450   1.9880268     -33.895648     -36.877191      2.9815432      0.0094851915 
     35500   2.0354346     -33.868772     -36.921415      3.0526431      0.0073831745 
     35550   2.0015852     -33.936944     -36.938821      3.0018774      0.014102772  
     35600   1.9985154     -33.916093     -36.913366      2.9972734      0.016871484  
     35650   1.9914861     -33.959312     -36.946043      2.9867313     -0.016030289  
     35700   1.9945345     -33.942903     -36.934206      2.9913031      0.02374933   
     35750   2.0351783     -33.872755     -36.925013      3.0522587     -0.0084366345 
     35800   2.0250602     -33.903484     -36.940568      3.0370841      0.043627975  
     35850   1.9545428     -33.982173     -36.913499      2.9313256     -0.0058249158 
     35900   1.981933      -33.97338      -36.945784      2.9724041     -0.025036589  
     35950   1.9887581     -33.971507     -36.954147      2.98264       -0.0068325879 
     36000   1.9862565     -34.036161     -37.015049      2.9788882      0.0026672751 
     36050   1.9837753     -34.039812     -37.014979      2.975167       0.0077930765 
     36100   2.010192      -33.974273     -36.989059      3.0147855      0.027502337  
     36150   1.9910342     -34.072074     -37.058128      2.9860536      0.016023896  
     36200   1.9804042     -34.030018     -37.00013       2.9701113      0.016708842  
     36250   2.0083545     -34.036231     -37.048261      3.0120297      0.031543722  
     36300   1.9915911     -34.006071     -36.99296       2.9868888      0.0058241567 
     36350   1.9851828     -34.065506     -37.042784      2.9772779      0.0013619637 
     36400   2.003193      -33.986294     -36.990583      3.0042887     -0.0065528022 
     36450   2.0038552     -34.016769     -37.022051      3.0052819      0.034339423  
     36500   1.9902093     -34.070177     -37.054994      2.9848164     -0.01731693   
     36550   2.0176949     -34.082098     -37.108136      3.0260379     -0.0011001891 
     36600   2.002576      -34.079873     -37.083237      3.0033633      0.00079422316
     36650   2.0061234     -34.055127     -37.06381       3.0086835      0.036976161  
     36700   1.9960613     -33.995745     -36.989338      2.9935929     -0.012230557  
     36750   1.9973626     -34.163576     -37.15912       2.9955445      0.0077181952 
     36800   1.9777729     -34.176986     -37.143151      2.9661649      0.036223177  
     36850   2.0040041     -34.098164     -37.103669      3.0055052     -0.0074612145 
     36900   2.0273622     -34.046752     -37.087289      3.0405364     -0.046957787  
     36950   1.9780642     -34.104403     -37.071005      2.9666017     -0.0058833012 
     37000   2.0161604     -34.088433     -37.11217       3.0237365      0.048529564  
     37050   2.029215      -34.176069     -37.219384      3.0433152      0.040254832  
     37100   2.0149861     -34.14769      -37.169665      3.0219754     -0.0031989924 
     37150   1.9650467     -34.199629     -37.146708      2.9470789     -0.027658046  
     37200   2.0060005     -34.156674     -37.165173      3.0084993      0.0097961031 
     37250   2.0071811     -34.121766     -37.132035      3.0102699     -0.0068952923 
     37300   2.0029225     -34.156993     -37.160876      3.0038831      0.063473188  
     37350   2.0130049     -34.177275     -37.196279      3.0190041     -0.0055063045 
     37400   2.0179903     -34.146446     -37.172926      3.0264809      0.022977836  
     37450   1.9853669     -34.150432     -37.127986      2.977554       0.0027320809 
     37500   1.9979057     -34.169059     -37.165418      2.9963591     -0.013995131  
     37550   1.9879499     -34.124084     -37.105512      2.9814279      0.0046291416 
     37600   1.9743782     -34.176331     -37.137405      2.9610737     -0.0038173267 
     37650   2.0152037     -34.193359     -37.215661      3.0223017      0.027670499  
     37700   1.9932845     -34.187498     -37.176926      2.9894284     -0.0058345733 
     37750   2.0105067     -34.140917     -37.156175      3.0152574      0.018401108  
     37800   1.9769412     -34.239395     -37.204313      2.9649175     -0.011485997  
     37850   1.9763409     -34.295422     -37.25944       2.9640172      0.0049543697 
     37900   2.0100939     -34.226432     -37.241071      3.0146383      0.044512585  
     37950   1.9676799     -34.27244      -37.223468      2.9510279      0.054363465  
     38000   1.9771393     -34.301092     -37.266307      2.9652147      0.048064521  
     38050   1.9867111     -34.239954     -37.219524      2.97957        0.027921303  
     38100   2.0181366     -34.18629      -37.21299       3.0267003      0.027856707  
     38150   1.9713379     -34.247156     -37.20367       2.956514       0.034426186  
     38200   2.020349      -34.15174      -37.181759      3.0300185      0.036798334  
     38250   2.0074918     -34.178781     -37.189517      3.0107358      0.023778755  
     38300   2.0257574     -34.194325     -37.232455      3.0381296      0.024868065  
     38350   2.0198553     -34.235263     -37.264541      3.029278      -0.019550897  
     38400   2.0281857     -34.210212     -37.251983      3.0417714     -0.037550188  
     38450   2.0129072     -34.190624     -37.209481      3.0188576     -0.032119727  
     38500   2.0322285     -34.168554     -37.216389      3.0478347      0.019790066  
     38550   2.0376245     -34.201547     -37.257475      3.0559274     -0.0051409643 
     38600   2.0152302     -34.306275     -37.328616      3.0223415     -0.00035609878
     38650   2.0134329     -34.238525     -37.258171      3.019646      -0.035804377  
     38700   1.9985981     -34.311026     -37.308423      2.9973975     -0.034021034  
     38750   2.0084205     -34.306763     -37.318892      3.0121286     -0.042690822  
     38800   1.9589745     -34.375889     -37.313861      2.937972       0.020632933  
     38850   2.02348       -34.315831     -37.350545      3.0347141      0.046795571  
     38900   1.9982441     -34.30484      -37.301706      2.9968666     -0.044646213  
     38950   2.005079      -34.322582     -37.329699      3.0071173      0.010114082  
     39000   2.0009128     -34.324823     -37.325692      3.0008689      0.030559795  
     39050   2.0436859     -34.278868     -37.343886      3.0650179      0.023388561  
     39100   2.0186934     -34.322148     -37.349683      3.0275354     -0.0089451952 
     39150   1.9771948     -34.380405     -37.345702      2.9652979     -0.0031289749 
     39200   2.0169212     -34.276667     -37.301544      3.0248775     -0.0062859182 
     39250   1.9819826     -34.38032      -37.352798      2.9724785     -0.057323502  
     39300   2.0175902     -34.336829     -37.36271       3.0258808      0.011117014  
     39350   2.008614      -34.404886     -37.417305      3.0124188      0.015205704  
     39400   1.9700053     -34.384122     -37.338637      2.9545154     -0.0075340765 
     39450   2.014192      -34.333887     -37.354672      3.0207845      0.025007789  
     39500   2.0359205     -34.375801     -37.429173      3.0533718      0.010111216  
     39550   2.0268486     -34.365948     -37.405714      3.0397662     -0.026306035  
     39600   2.0282505     -34.386273     -37.428141      3.0418687     -0.045940441  
     39650   1.9974919     -34.449754     -37.445493      2.9957385      0.0057751743 
     39700   1.9789469     -34.439202     -37.407128      2.9679257      0.028320319  
     39750   1.9510271     -34.527066     -37.453119      2.9260529     -0.032286249  
     39800   1.9955651     -34.366121     -37.35897       2.9928488     -0.03326762   
     39850   2.0053991     -34.43485      -37.442447      3.0075973     -0.00098985895
     39900   2.0085618     -34.44659      -37.458931      3.0123406     -0.034210788  
     39950   1.9971311     -34.427662     -37.42286       2.9951974      0.071589514  
     40000   1.9861194     -34.425275     -37.403958      2.9786826      0.0071632413 
     40050   1.9995473     -34.46715      -37.465971      2.998821      -0.013754062  
     40100   1.9745789     -34.455618     -37.416993      2.9613747     -0.041330398  
     40150   2.0181365     -34.426731     -37.453431      3.0267002      0.023038309  
     40200   1.995219      -34.461798     -37.454127      2.9923297     -0.0023276876 
     40250   1.9864956     -34.490743     -37.46999       2.9792468     -0.0079050686 
     40300   1.9691782     -34.511239     -37.464514      2.953275       0.03622206   
     40350   2.0109414     -34.443509     -37.459419      3.0159094      0.0070257281 
     40400   1.9714334     -34.538045     -37.494702      2.9566572     -0.0055630546 
     40450   1.9513528     -34.590472     -37.517013      2.9265413     -0.047674096  
     40500   1.9899997     -34.510076     -37.494578      2.984502       0.0073275627 
     40550   2.0064108     -34.438903     -37.448018      3.0091146      0.028853633  
     40600   2.0170571     -34.429316     -37.454397      3.0250814      0.021661447  
     40650   2.0254557     -34.48265      -37.520327      3.0376772     -0.010144613  
     40700   1.996487      -34.466908     -37.461139      2.9942314      0.036455743  
     40750   1.978617      -34.493734     -37.461165      2.9674309     -0.018398778  
     40800   2.0002881     -34.500511     -37.500443      2.9999321      0.025609736  
     40850   2.0005055     -34.587243     -37.587501      3.0002582      0.02063134   
     40900   2.0284135     -34.54377      -37.585884      3.0421131     -0.002938395  
     40950   2.0069261     -34.59254      -37.602427      3.0098874      0.022666536  
     41000   2.0056322     -34.588941     -37.596888      3.0079469     -0.023224149  
     41050   2.0166607     -34.561205     -37.585691      3.0244868     -0.009884904  
     41100   2.0064621     -34.571035     -37.580227      3.0091915     -0.011527734  
     41150   1.9797238     -34.624607     -37.593698      2.9690908     -0.032854966  
     41200   1.9923745     -34.611987     -37.600051      2.9880636      0.015160372  
     41250   2.0051307     -34.552756     -37.559951      3.0071948     -0.014908889  
     41300   2.0223935     -34.599091     -37.632175      3.0330846      0.021784651  
     41350   1.9890732     -34.654508     -37.637621      2.9831126      0.0006600785 
     41400   1.9564043     -34.73796      -37.672078      2.9341174      0.0083571349 
     41450   2.0234661     -34.57065      -37.605343      3.0346933      0.016275058  
     41500   2.0041109     -34.636696     -37.642362      3.0056654     -0.021314913  
     41550   1.9933538     -34.657342     -37.646874      2.9895323     -0.014355254  
     41600   1.9743587     -34.689508     -37.650553      2.9610445     -0.0037491557 
     41650   2.0152129     -34.671895     -37.694211      3.0223156      0.016504089  
     41700   2.0137587     -34.676875     -37.697009      3.0201346     -0.0093193034 
     41750   2.003733      -34.700833     -37.705932      3.0050986     -0.0078620153 
     41800   1.9904893     -34.76942      -37.754656      2.9852364      0.0265154    
     41850   2.0201659     -34.708546     -37.73829       3.0297438      0.00076371118
     41900   1.9876905     -34.717506     -37.698545      2.9810388      0.021340712  
     41950   1.9729732     -34.759755     -37.718722      2.9589665     -0.0061922774 
     42000   2.0022138     -34.732338     -37.735158      3.0028201      0.00093402204
     42050   1.9960689     -34.689678     -37.683282      2.9936043     -0.0011143033 
     42100   1.9866926     -34.722284     -37.701826      2.9795422     -0.028683663  
     42150   1.9897341     -34.756069     -37.740172      2.9841037     -0.015874416  
     42200   2.0181912     -34.738946     -37.765728      3.0267823     -0.0068869846 
     42250   2.0250179     -34.687804     -37.724825      3.0370206      0.028104456  
     42300   2.0112501     -34.758159     -37.774531      3.0163723     -0.0037627155 
     42350   2.0046191     -34.788991     -37.795418      3.0064275     -0.058724379  
     42400   2.0027679     -34.82492      -37.828571      3.0036512      0.012470951  
     42450   1.984465      -34.826021     -37.802223      2.9762015     -0.00081528183
     42500   1.9875083     -34.882158     -37.862924      2.9807655      0.021089583  
     42550   2.0113979     -34.808366     -37.82496       3.0165941      0.0040348261 
     42600   1.9747243     -34.897961     -37.859554      2.9615928      0.0028327929 
     42650   1.9968348     -34.87021      -37.864963      2.994753       0.0063055204 
     42700   1.9965717     -34.902756     -37.897114      2.9943583      0.055377219  
     42750   2.0191176     -34.88338      -37.911551      3.0281716      0.009373546  
     42800   1.995108      -34.872108     -37.864271      2.9921632      0.026416366  
     42850   1.9815679     -34.882025     -37.853881      2.9718565     -0.018621539  
     42900   1.9921662     -34.94296      -37.930712      2.9877513      0.035310666  
     42950   1.9945989     -34.930186     -37.921586      2.9913996      0.051825503  
     43000   1.9653421     -34.976514     -37.924035      2.9475218     -0.0083249193 
     43050   2.008993      -34.916864     -37.929851      3.0129872      0.019718268  
     43100   2.0332277     -34.865262     -37.914595      3.0493332     -0.03895622   
     43150   2.0312446     -34.840045     -37.886404      3.0463591     -0.016626116  
     43200   2.0098917     -34.918894     -37.933229      3.0143351      0.0013605666 
     43250   1.9917486     -34.912821     -37.899946      2.987125       0.041858763  
     43300   1.9750782     -34.912701     -37.874824      2.9621236      0.0070459446 
     43350   1.9940308     -34.882542     -37.87309       2.9905478     -0.072090375  
     43400   1.9943824     -34.943167     -37.934242      2.991075      -0.0019219579 
     43450   2.0227399     -34.893357     -37.926961      3.0336041     -0.043734627  
     43500   2.0104288     -34.901395     -37.916535      3.0151405     -0.048185902  
     43550   2.0006344     -34.920817     -37.921268      3.0004515     -0.028379756  
     43600   1.9753075     -35.000863     -37.96333       2.9624674      0.029956234  
     43650   2.0076742     -34.908831     -37.91984       3.0110093      0.008670067  
     43700   1.9983781     -34.944781     -37.941849      2.9970675     -0.056628238  
     43750   1.9890125     -34.970334     -37.953356      2.9830215     -0.017726045  
     43800   1.9814736     -35.03591      -38.007625      2.971715       0.00023302793
     43850   1.985793      -34.979968     -37.958161      2.9781931     -0.043915908  
     43900   2.0020539     -34.957331     -37.959912      3.0025804      0.027472321  
     43950   1.9821099     -35.043522     -38.016192      2.9726694     -0.024557932  
     44000   2.0050547     -34.946452     -37.953533      3.0070808      0.038157686  
     44050   2.0213802     -34.993434     -38.024999      3.0315649      0.022557057  
     44100   1.9920358     -34.932271     -37.919827      2.9875557     -0.06088145   
     44150   2.0006328     -34.948052     -37.948501      3.000449       0.0030883504 
     44200   2.0021038     -34.937537     -37.940192      3.0026552      0.031615702  
     44250   2.0117171     -34.997336     -38.014409      3.0170728      0.0044383007 
     44300   1.9890262     -35.070821     -38.053863      2.983042       0.016307982  
     44350   2.0097362     -34.999145     -38.013247      3.0141019     -0.039182624  
     44400   1.9709533     -35.045326     -38.001263      2.9559373      0.0085215427 
     44450   2.0435179     -34.940608     -38.005374      3.0647659      0.00037269699
     44500   2.0253796     -35.002817     -38.04038       3.0375631     -0.0079292109 
     44550   1.9856838     -35.087288     -38.065317      2.9780293      0.0047221562 
     44600   1.9971076     -35.107314     -38.102476      2.9951621     -0.0018369986 
     44650   1.9668554     -35.145034     -38.094825      2.9497914     -0.042372386  
     44700   2.0181918     -35.055008     -38.081791      3.0267832     -0.039497883  
     44750   2.0124523     -35.076925     -38.095101      3.0181754     -0.036431878  
     44800   1.9983789     -35.145281     -38.14235       2.9970687     -0.029844953  
     44850   1.9877351     -35.152452     -38.133557      2.9811057      0.05059478   
     44900   1.9920098     -35.127758     -38.115274      2.9875167      0.047076742  
     44950   1.9763194     -35.156458     -38.120443      2.963985       0.01288534   
     45000   1.9985209     -35.130367     -38.127648      2.9972818      0.0033266567 
     45050   1.9916534     -35.104471     -38.091454      2.9869822      0.06105164   
     45100   1.9719837     -35.112488     -38.069971      2.9574825     -0.044257426  
     45150   2.0478496     -34.996827     -38.06809       3.0712624      0.0017665125 
     45200   2.0171759     -35.128675     -38.153934      3.0252596     -0.010842129  
     45250   1.9985651     -35.136163     -38.133511      2.9973481      0.0032216696 
     45300   2.0385492     -35.049993     -38.107307      3.0573141     -0.0076956423 
     45350   1.9986617     -35.171408     -38.1689        2.9974929     -0.036038689  
     45400   2.0249514     -35.090663     -38.127584      3.0369209      0.067615816  
     45450   2.0041034     -35.138885     -38.144539      3.005654      -0.014263639  
     45500   2.0349919     -35.092737     -38.144716      3.051979      -0.036403777  
     45550   2.0053856     -35.112432     -38.120009      3.007577       0.045258134  
     45600   2.0136331     -35.145669     -38.165615      3.0199462      0.006138361  
     45650   2.0063363     -35.116738     -38.125741      3.0090029     -0.035105659  
     45700   2.0300703     -35.147373     -38.191971      3.0445979     -0.04368605   
     45750   2.0224602     -35.114527     -38.147712      3.0331847      0.031829447  
     45800   2.0306152     -35.117062     -38.162477      3.0454151     -0.0044643529 
     45850   1.9911154     -35.187874     -38.174049      2.9861753      0.056506229  
     45900   2.0348863     -35.117093     -38.168914      3.0518208     -0.072169725  
     45950   2.0014716     -35.209901     -38.211608      3.001707      -0.017127226  
     46000   2.0016549     -35.166975     -38.168957      3.0019819      0.0029828125 
     46050   2.0301756     -35.175129     -38.219885      3.0447559      0.00045854724
     46100   1.9725725     -35.237318     -38.195684      2.9583656      0.05669039   
     46150   2.0238855     -35.157051     -38.192374      3.0353222     -0.047075904  
     46200   1.9936116     -35.207808     -38.197727      2.989919       0.0068187938 
     46250   1.9838964     -35.270181     -38.245529      2.9753486      0.058849921  
     46300   2.039487      -35.101604     -38.160324      3.0587206     -0.031748578  
     46350   1.9965222     -35.13836      -38.132645      2.9942842      0.015062218  
     46400   2.0113098     -35.161815     -38.178277      3.0164618      0.0055926234 
     46450   2.0185518     -35.124457     -38.15178       3.0273231     -0.01179348   
     46500   2.0321323     -35.17648      -38.22417       3.0476905     -0.027202862  
     46550   2.024865      -35.2561       -38.292891      3.0367913     -0.0058899216 
     46600   1.97598       -35.280362     -38.243838      2.963476      -0.021473033  
     46650   2.000303      -35.207354     -38.207309      2.9999544      0.03456781   
     46700   2.0023643     -35.276092     -38.279137      3.0030458     -0.0071844417 
     46750   2.0238892     -35.223529     -38.258857      3.0353278      0.018372234  
     46800   2.0412859     -35.175318     -38.236736      3.0614185      0.053621409  
     46850   2.0143285     -35.248602     -38.269591      3.0209892      0.0073912596 
     46900   2.0116894     -35.260672     -38.277703      3.0170311     -0.028712263  
     46950   1.9763348     -35.296403     -38.260411      2.9640081     -0.060150982  
     47000   1.9900898     -35.25279      -38.237427      2.9846372     -0.088769447  
     47050   2.0051491     -35.249223     -38.256446      3.0072224     -0.012397696  
     47100   2.0125343     -35.225832     -38.24413       3.0182983      0.01493061   
     47150   1.9921945     -35.250055     -38.237849      2.9877937      0.046494931  
     47200   2.0240452     -35.215603     -38.251165      3.0355617      0.026366726  
     47250   2.006589      -35.202572     -38.211954      3.0093818     -0.086074839  
     47300   2.018029      -35.232132     -38.258671      3.026539      -0.022165847  
     47350   1.9698379     -35.284662     -38.238926      2.9542643     -0.041513154  
     47400   2.0143246     -35.274964     -38.295947      3.0209834      0.013978396  
     47450   1.9536091     -35.365255     -38.29518       2.9299253     -0.0250994    
     47500   2.0220712     -35.235104     -38.267705      3.0326012      0.0045643301 
     47550   2.0463122     -35.169069     -38.238026      3.0689568      0.040374175  
     47600   2.0046973     -35.208727     -38.215272      3.0065448     -0.019104165  
     47650   2.0082355     -35.334479     -38.34633       3.0118513     -0.033776162  
     47700   1.9619941     -35.44226      -38.384761      2.9425007     -0.00064528345
     47750   1.9564298     -35.443037     -38.377192      2.9341556     -0.0070973011 
     47800   1.9817185     -35.342499     -38.314581      2.9720823     -0.011730001  
     47850   2.0544662     -35.303424     -38.38461       3.0811857      0.055987613  
     47900   2.0190526     -35.308579     -38.336653      3.0280741     -0.0014656183 
     47950   2.0147429     -35.318781     -38.340391      3.0216106     -0.060461889  
     48000   2.015653      -35.356026     -38.379002      3.0229756      0.003070025  
     48050   2.0143055     -35.322894     -38.343849      3.0209547     -0.017982554  
     48100   2.0070287     -35.338545     -38.348586      3.0100413      0.0023201288 
     48150   1.9935675     -35.302278     -38.292131      2.9898528     -0.0080509786 
     48200   2.0141163     -35.348352     -38.369023      3.0206709     -0.046076007  
     48250   2.0172303     -35.384756     -38.410097      3.0253412      0.016739619  
     48300   1.9483475     -35.450789     -38.372823      2.9220342     -0.012821953  
     48350   1.9664742     -35.472241     -38.42146       2.9492197     -0.0017847302 
     48400   2.013105      -35.444282     -38.463436      3.0191542      0.044835107  
     48450   2.0150669     -35.426251     -38.448348      3.0220966     -0.0206631    
     48500   1.9821235     -35.446081     -38.418771      2.9726898     -0.041365947  
     48550   2.0060055     -35.447534     -38.456041      3.0085068     -0.025132539  
     48600   1.9959756     -35.439652     -38.433116      2.9934643     -0.017894558  
     48650   2.0176275     -35.385856     -38.411793      3.0259369      0.035196262  
     48700   1.9753422     -35.519565     -38.482085      2.9625195      0.047981593  
     48750   2.0014099     -35.467311     -38.468926      3.0016146     -0.017927141  
     48800   2.002699      -35.452062     -38.45561       3.0035478     -0.044379734  
     48850   1.9467425     -35.551723     -38.47135       2.9196271     -0.015596908  
     48900   2.0270105     -35.449712     -38.48972       3.0400089      0.008829929  
     48950   1.9802014     -35.479974     -38.449782      2.9698071     -0.013140373  
     49000   2.0071303     -35.475279     -38.485472      3.0101936      0.02696448   
     49050   1.9904936     -35.487127     -38.47237       2.9852428      0.029210068  
     49100   2.0423974     -35.453516     -38.516601      3.0630855     -0.0047157844 
     49150   1.9648525     -35.488838     -38.435625      2.9467875     -0.070753042  
     49200   2.0051719     -35.564906     -38.572162      3.0072565     -0.011776183  
     49250   2.0124483     -35.490004     -38.508173      3.0181694     -0.059539573  
     49300   2.0015509     -35.549066     -38.550892      3.0018259      0.028925006  
     49350   1.9880164     -35.535428     -38.516956      2.9815275      0.0068101658 
     49400   2.0124732     -35.472516     -38.490723      3.0182066     -0.02675759   
     49450   1.978828      -35.489053     -38.4568        2.9677473     -0.066000526  
     49500   2.0329465     -35.495487     -38.544398      3.0489116      0.012130292  
     49550   1.9914944     -35.503358     -38.490102      2.9867437     -0.0022984687 
     49600   1.9557537     -35.61893      -38.552072      2.9331417      0.049475662  
     49650   1.9869627     -35.513842     -38.493789      2.9799473     -0.0058654622 
     49700   2.0111412     -35.534222     -38.550431      3.016209       0.034798454  
     49750   2.027639      -35.483009     -38.52396       3.0409516      0.017253636  
     49800   2.0160858     -35.5636       -38.587225      3.0236247     -0.074431497  
     49850   1.9679866     -35.561747     -38.513235      2.9514879      0.028034748  
     49900   1.9773644     -35.609367     -38.574919      2.9655523      0.031166826  
     49950   1.9941433     -35.594338     -38.585054      2.9907165     -0.036264146  
     50000   2.0123001     -35.579558     -38.597505      3.0179471     -0.035876431  
     50050   1.9886023     -35.620081     -38.602487      2.9824063      0.051935212  
     50100   2.0129701     -35.586777     -38.605729      3.0189519      0.071904714  
     50150   2.0021545     -35.576278     -38.579009      3.0027312      0.033148384  
     50200   1.9924214     -35.566437     -38.554571      2.988134       0.02891297   
     50250   2.0144711     -35.597618     -38.618821      3.021203      -0.034820086  
     50300   1.9860381     -35.618092     -38.596653      2.9785606      0.01262726   
     50350   1.9736594     -35.628205     -38.588201      2.9599956     -0.0034382245 
     50400   2.0244335     -35.616765     -38.652909      3.0361441     -0.026287042  
     50450   1.9945898     -35.646442     -38.637829      2.991386       0.044347665  
     50500   1.9834346     -35.710527     -38.685183      2.974656      -0.035845755  
     50550   2.0091431     -35.691874     -38.705087      3.0132123     -0.0052364633 
     50600   2.021514      -35.704627     -38.736393      3.0317657      0.016156514  
     50650   1.9945405     -35.671142     -38.662454      2.9913121      0.0072466808 
     50700   2.0030216     -35.639067     -38.643098      3.0040317      0.043876309  
     50750   2.0168591     -35.638219     -38.663003      3.0247845      0.020232562  
     50800   2.0045981     -35.664331     -38.670727      3.006396      -0.034551691  
     50850   1.999178      -35.707253     -38.705521      2.9982672      0.0081619438 
     50900   2.0186979     -35.701461     -38.729003      3.0275422      0.015372534  
     50950   2.0123048     -35.701961     -38.719915      3.0179541      0.049929443  
     51000   2.0014601     -35.765113     -38.766803      3.0016898      0.033472289  
Loop time of 91.9501 on 1 procs for 50000 steps with 6000 atoms

Performance: 234910.142 tau/day, 543.773 timesteps/s, 3.263 Matom-step/s
83.5% CPU use with 1 MPI tasks x 1 OpenMP threads

MPI task timing breakdown:
Section |  min time  |  avg time  |  max time  |%varavg| %total
---------------------------------------------------------------
Pair    | 42.553     | 42.553     | 42.553     |   0.0 | 46.28
Neigh   | 17.811     | 17.811     | 17.811     |   0.0 | 19.37
Comm    | 2.2775     | 2.2775     | 2.2775     |   0.0 |  2.48
Output  | 13.337     | 13.337     | 13.337     |   0.0 | 14.51
Modify  | 14.658     | 14.658     | 14.658     |   0.0 | 15.94
Other   |            | 1.314      |            |       |  1.43

Nlocal:           6000 ave        6000 max        6000 min
Histogram: 1 0 0 0 0 0 0 0 0 0
Nghost:           2841 ave        2841 max        2841 min
Histogram: 1 0 0 0 0 0 0 0 0 0
Neighs:          85115 ave       85115 max       85115 min
Histogram: 1 0 0 0 0 0 0 0 0 0

Total # of neighbors = 85115
Ave neighs/atom = 14.185833
Neighbor list builds = 6342
Dangerous builds = 0
Total wall time: 0:01:35
